p cnf 7 27
-7 3 1 7 0
5 0
1 2 -6 -5 0
-7 -1 0
-7 6 0
1 -1 7 0
-2 0
1 2 3 0
-7 -5 6 0
5 0
-7 -3 6 7 0
4 -1 0
-3 0
-2 0
-5 -4 0
-7 -5 4 5 0
-3 0
-6 -5 -4 5 0
1 -5 7 0
7 0
-7 0
-6 -1 7 0
-7 2 4 0
2 0
-2 7 0
2 5 0
1 0
